n_res = 3;
rc = [ 5, 8, 7 ];
n_tasks = 5;
d = [ 4, 2, 6, 5, 3 ];
rr = [| 3, 3, 2, 2, 3
      | 3, 3, 1, 2, 1
      | 1, 2, 2, 2, 2|];
suc = [ { 2 },
       {  },
       {  },
       { 3 },
       { 4 } ];
